15
1 1
2 3
3 9
4 9
5 8
6 1
7 3
8 2
9 5
10 9
11 3
12 6
13 8
14 8
53
0 1 35
1 0 35
0 2 62
2 0 62
0 3 36
3 0 36
0 4 10
4 0 10
0 5 94
5 0 94
0 6 76
6 0 76
0 7 75
7 0 75
0 8 53
8 0 53
0 9 49
9 0 49
0 10 54
10 0 54
0 11 78
11 0 78
0 12 62
12 0 62
0 13 83
13 0 83
0 14 84
14 0 84
1 5 68
1 8 87
1 11 25
1 14 12
2 8 85
2 13 8
3 12 9
4 13 49
5 7 33
5 8 29
5 10 20
5 12 56
7 11 34
7 13 91
7 14 98
8 11 61
8 13 54
9 12 23
9 13 22
9 14 87
10 11 89
10 13 98
10 14 80
11 13 60
11 14 61
